
Gurobi 9.1.2 (win64, Java) logging started Sat Nov 13 11:41:49 2021

Academic license - for non-commercial use only - expires 2022-10-30
Gurobi Optimizer version 9.1.2 build v9.1.2rc0 (win64)
Thread count: 6 physical cores, 12 logical processors, using up to 12 threads
Optimize a model with 80 rows, 1200 columns and 2400 nonzeros
Model fingerprint: 0xce9b6c04
Variable types: 0 continuous, 1200 integer (1200 binary)
Coefficient statistics:
  Matrix range     [1e+00, 1e+03]
  Objective range  [4e+01, 9e+02]
  Bounds range     [1e+00, 1e+00]
  RHS range        [1e+00, 1e+03]
Found heuristic solution: objective 15707.000000
Presolve removed 0 rows and 372 columns
Presolve time: 0.01s
Presolved: 80 rows, 828 columns, 1656 nonzeros
Variable types: 0 continuous, 828 integer (828 binary)
Presolved: 80 rows, 828 columns, 1656 nonzeros


Root relaxation: objective 1.823592e+04, 265 iterations, 0.00 seconds

    Nodes    |    Current Node    |     Objective Bounds      |     Work
 Expl Unexpl |  Obj  Depth IntInf | Incumbent    BestBd   Gap | It/Node Time

     0     0 18235.9203    0   26 15707.0000 18235.9203  16.1%     -    0s
H    0     0                    16903.000000 18235.9203  7.89%     -    0s
H    0     0                    17045.000000 18235.9203  6.99%     -    0s
H    0     0                    17459.000000 18235.9203  4.45%     -    0s
     0     0 18235.9203    0   59 17459.0000 18235.9203  4.45%     -    0s
     0     0 18235.9203    0   43 17459.0000 18235.9203  4.45%     -    0s
     0     2 18235.9203    0   32 17459.0000 18235.9203  4.45%     -    0s
H   33    44                    17610.000000 18235.7516  3.55%  74.5    0s
H   73    85                    17679.000000 18235.7516  3.15%  50.0    0s
H  132   145                    17688.000000 18235.7516  3.10%  45.9    0s
H  137   145                    17813.000000 18235.7516  2.37%  44.8    0s
H  339   343                    17851.000000 18235.7516  2.16%  32.7    0s
H 1016   967                    17908.000000 18235.7516  1.83%  16.4    0s
H 1430  1173                    17957.000000 18185.1202  1.27%  16.1    1s
H 1448  1126                    17995.000000 18183.7503  1.05%  19.3    1s
H 1502  1107                    18030.000000 18178.5693  0.82%  25.0    3s
H 1553  1086                    18152.000012 18171.9890  0.11%  28.6    4s
  1558  1091 18168.4667   86  124 18152.0000 18171.9890  0.11%  30.2    5s

Cutting planes:
  Gomory: 8
  Cover: 23
  Clique: 4
  MIR: 72
  StrongCG: 103
  Flow cover: 21

Explored 2613 nodes (118743 simplex iterations) in 7.41 seconds
Thread count was 12 (of 12 available processors)

Solution count 10: 18152 18030 17995 ... 17610
No other solutions better than 18152

Optimal solution found (tolerance 1.00e-12)
Best objective 1.815200286468e+04, best bound 1.815200286468e+04, gap 0.0000%
